NAME : instances/diverse-tsp/instance-5.tsp
COMMENT : No Comment
TYPE : TSP
DIMENSION: 45
EDGE_WEIGHT_TYPE : EUC_2D
NODE_COORD_SECTION
1 1112 1939 
2 712 1132 
3 535 1980 
4 800 878 
5 1614 1721 
6 567 1661 
7 1339 780 
8 865 305 
9 645 1933 
10 466 986 
11 702 837 
12 936 316 
13 1092 949 
14 770 1968 
15 1345 163 
16 27 475 
17 223 425 
18 1590 1434 
19 920 1508 
20 1308 463 
21 1197 604 
22 1803 146 
23 810 438 
24 21 1906 
25 198 1637 
26 1733 1904 
27 1471 1843 
28 998 202 
29 587 329 
30 1977 121 
31 571 678 
32 1252 364 
33 363 1592 
34 715 441 
35 138 796 
36 979 1759 
37 1795 1465 
38 71 527 
39 1180 907 
40 940 475 
41 483 1140 
42 1456 279 
43 145 1676 
44 1936 1746 
45 148 1040 
EOF
